c --- [ banner ] -------------------------------------------------------------
c 
c CaDiCaL Radically Simplified CDCL SAT Solver
c Copyright (c) 2016-2021 A. Biere, M. Fleury, N. Froleyks
c 
c Version 1.5.2 ca9bff05c11bde5eae4912f9932871d1527e61d8
c g++ (GCC) 9.3.0 -Wall -Wextra -O3 -DNDEBUG
c Sun May 1 02:23:23 EDT 2022 Linux gra-login1 3.10.0-1160.59.1.el7.x86_64 x86_64
c 
c --- [ limit ] --------------------------------------------------------------
c 
c setting conflict limit to 200000 conflicts (due to '200000')
c 
c --- [ parsing input ] ------------------------------------------------------
c 
c reading DIMACS file from '12.cubes379.adj'
c opening file to read '12.cubes379.adj'
c found 'p cnf 5320 924210' header
c parsed 924210 clauses in 8.88 seconds process time
c closing file '12.cubes379.adj'
c after reading 686668115 bytes 654.9 MB
c 
c --- [ options ] ------------------------------------------------------------
c 
c all options are set to their default value
c 
c --- [ solving ] ------------------------------------------------------------
c 
c time measured in process time since initialization
c 
c  seconds   reductions  redundant  irredundant
c          MB    restarts       trail      variables
c           level   conflicts       glue        remaining
c 
c *  8.88 692  0 0   0    0    0  0% 0 923580 3808 72%
c {  9.41 718  0 0   0    0    0  0% 0 923580 3808 72%
c i  9.94 726 127 0   0   19   17 54% 4 923580 3807 72%
c i 10.11 729 73 0   5   51   41 56% 16 923580 3806 72%
c i 10.37 731 91 0  13   77   65 53% 21 923580 3805 72%
c i 10.52 732 75 0  20  121   92 50% 21 923580 3804 72%
c i 10.54 732 71 0  20  130   99 51% 21 923580 3787 71%
c i 10.56 732 74 0  20  144  109 51% 21 923580 3779 71%
c i 10.56 732 76 0  20  152  114 51% 21 923580 3777 71%
c i 10.57 732 76 0  20  155  115 51% 21 923580 3775 71%
c i 10.57 732 78 0  20  164  122 51% 21 923580 3772 71%
c i 10.57 732 79 0  20  169  126 51% 21 923580 3771 71%
c i 10.57 732 80 0  20  173  129 51% 22 923580 3770 71%
c i 10.59 732 79 0  22  179  134 51% 22 923580 3762 71%
c i 10.59 732 78 0  22  180  134 51% 22 923580 3761 71%
c i 10.63 732 76 0  24  194  146 51% 22 923580 3760 71%
c i 10.81 732 74 0  28  270  204 50% 22 923580 3759 71%
c i 10.82 732 73 0  28  273  206 50% 22 923580 3758 71%
c i 10.82 732 73 0  28  275  207 50% 22 923580 3757 71%
c i 10.82 732 72 0  28  276  207 50% 21 923580 3756 71%
c 
c  seconds   reductions  redundant   irredundant
c          MB    restarts       trail       variables
c           level   conflicts       glue         remaining
c 
c i 10.82 732 72 0  28  279  208 50% 21 923580 3755 71%
c i 10.82 732 72 0  28  280  208 50% 21 923580 3754 71%
c i 10.82 732 71 0  28  282  209 50% 21 923580 3753 71%
c i 10.82 732 71 0  28  283  209 50% 21 923580 3752 71%
c - 12.48 682 69 1  28  300  223 51% 21 67178 3752 71%
c i 12.57 682 69 1  31  333  243 51% 22 67178 3751 71%
c i 12.58 682 68 1  31  337  245 51% 21 67178 3750 70%
c i 12.59 682 63 1  31  376  261 52% 20 67178 3749 70%
c i 12.60 682 62 1  31  384  266 52% 20 67178 3748 70%
c i 12.60 682 61 1  31  396  272 52% 20 67178 3747 70%
c i 12.60 682 60 1  31  398  273 52% 20 67178 3746 70%
c i 12.63 682 46 1  31  594  400 53% 18 67178 3745 70%
c i 12.63 682 46 1  31  597  402 53% 18 67178 3744 70%
c i 12.63 682 45 1  31  615  412 53% 18 67178 3743 70%
c i 12.63 682 45 1  31  623  416 53% 18 67178 3742 70%
c } 12.65 682 41 1  31  708  463 54% 17 67178 3742 70%
c 1 12.65 682 41 1  31  708  463 54% 17 67178 3742 70%
c 
c --- [ writing output ] -----------------------------------------------------
c 
c writing simplified CNF to DIMACS file 'simp/12.cubes379.adj.simp1'
c * 12.65 682 41 1  31  708  463 54% 17 67178 3742 70%
c opening file to write 'simp/12.cubes379.adj.simp1'
c writing 'p cnf 5320 67150' header
c closing file 'simp/12.cubes379.adj.simp1'
c after writing 20525753 bytes 19.6 MB
c wrote 67150 clauses in 0.18 seconds process time
c 
c --- [ writing extension ] --------------------------------------------------
c 
c writing extension stack to 'simp/12.cubes379.adj.ext1'
c opening file to write 'simp/12.cubes379.adj.ext1'
c closing file 'simp/12.cubes379.adj.ext1'
c after writing 22924 bytes 0.0 MB
c wrote 1578 witnesses in 0.00 seconds process time
c 
c --- [ result ] -------------------------------------------------------------
c 
s SATISFIABLE
c 
c --- [ run-time profiling ] -------------------------------------------------
c 
c process time taken by individual solving procedures
c (percentage relative to process time for solving)
c 
c         8.88  235.47% parse
c         3.77  100.00% search
c         3.24   85.98% unstable
c         0.53   14.01% lucky
c         0.00    0.00% simplify
c   =================================
c         3.77   29.38% solve
c 
c last line shows process time for solving
c (percentage relative to total process time)
c 
c --- [ statistics ] ---------------------------------------------------------
c 
c chronological:               245        34.60 %  of conflicts
c conflicts:                   708       187.83    per second
c decisions:                  5305      1407.41    per second
c fixed:                      1578        29.66 %  of all variables
c learned:                     681        96.19 %  per conflict
c learned_lits:              84432       100.00 %  learned literals
c minimized:                     0         0.00 %  learned literals
c shrunken:                  56521        66.94 %  learned literals
c minishrunken:               4008         4.75 %  learned literals
c propagations:             172139         0.05 M  per second
c restarts:                     31        22.84    interval
c subsumed:                    181         0.01 %  of all clauses
c 
c seconds are measured in process time for solving
c 
c --- [ resources ] ----------------------------------------------------------
c 
c total process time since initialization:        12.83    seconds
c total real time since initialization:           13.11    seconds
c maximum resident set size of process:          732.59    MB
c 
c --- [ shutting down ] ------------------------------------------------------
c 
c exit 10
c --- [ banner ] -------------------------------------------------------------
c 
c CaDiCaL Radically Simplified CDCL SAT Solver
c Copyright (c) 2016-2021 A. Biere, M. Fleury, N. Froleyks
c 
c Version 1.5.2 ca9bff05c11bde5eae4912f9932871d1527e61d8
c g++ (GCC) 9.3.0 -Wall -Wextra -O3 -DNDEBUG
c Sun May 1 02:23:23 EDT 2022 Linux gra-login1 3.10.0-1160.59.1.el7.x86_64 x86_64
c 
c --- [ limit ] --------------------------------------------------------------
c 
c setting conflict limit to 200000 conflicts (due to '200000')
c 
c --- [ parsing input ] ------------------------------------------------------
c 
c reading DIMACS file from 'simp/12.cubes379.adj.simp1'
c opening file to read 'simp/12.cubes379.adj.simp1'
c found 'p cnf 5320 67150' header
c parsed 67150 clauses in 0.26 seconds process time
c closing file 'simp/12.cubes379.adj.simp1'
c after reading 20525753 bytes 19.6 MB
c 
c --- [ options ] ------------------------------------------------------------
c 
c all options are set to their default value
c 
c --- [ solving ] ------------------------------------------------------------
c 
c time measured in process time since initialization
c 
c  seconds  reductions  redundant  irredundant
c         MB    restarts       trail     variables
c          level   conflicts       glue       remaining
c 
c *  0.26 25  0 0   0    0    0  0% 0 67150 3692 69%
c {  0.28 27  0 0   0    0    0  0% 0 67150 3692 69%
c i  0.32 30 86 0   3   46   40 26% 14 67150 3691 69%
c i  0.38 32 69 0  12  115   97 23% 19 67150 3690 69%
c i  0.41 32 46 0  12  234  176 23% 17 67150 3689 69%
c -  0.45 31 41 1  12  301  232 23% 16 67141 3689 69%
c i  0.52 32 34 1  24  460  343 24% 16 67141 3688 69%
c i  0.65 32 28 1  48  881  628 25% 15 67141 3687 69%
c -  0.74 51 28 2  54  902  554 25% 15 67136 3687 69%
c }  0.78 51 28 2  68 1002  625 24% 16 67136 3687 69%
c [  0.78 51  0 2  68 1002  625  0% 0 67136 3687 69%
c O  0.78 51 19 2  68 1003  626  5% 1 67136 3687 69%
c i  0.78 51 16 2  68 1004  626  5% 0 67136 3642 68%
c i  0.78 51 16 2  68 1005  626  4% 0 67136 3623 68%
c ]  0.84 51 29 2  68 1444  859 26% 12 67136 3623 68%
c 1  0.84 51 29 2  68 1444  859 26% 12 67136 3623 68%
c 
c --- [ writing output ] -----------------------------------------------------
c 
c writing simplified CNF to DIMACS file 'simp/12.cubes379.adj.simp2'
c *  0.84 51 29 2  68 1444  859 26% 12 67136 3623 68%
c opening file to write 'simp/12.cubes379.adj.simp2'
c writing 'p cnf 5320 66425' header
c closing file 'simp/12.cubes379.adj.simp2'
c after writing 19178158 bytes 18.3 MB
c wrote 66425 clauses in 0.16 seconds process time
c 
c --- [ writing extension ] --------------------------------------------------
c 
c writing extension stack to 'simp/12.cubes379.adj.ext2'
c opening file to write 'simp/12.cubes379.adj.ext2'
c closing file 'simp/12.cubes379.adj.ext2'
c after writing 970 bytes 0.0 MB
c wrote 69 witnesses in 0.00 seconds process time
c 
c --- [ result ] -------------------------------------------------------------
c 
s SATISFIABLE
c 
c --- [ run-time profiling ] -------------------------------------------------
c 
c process time taken by individual solving procedures
c (percentage relative to process time for solving)
c 
c         0.58   99.97% search
c         0.50   86.28% unstable
c         0.26   45.54% parse
c         0.06   11.17% stable
c         0.01    2.50% lucky
c         0.00    0.00% simplify
c   =================================
c         0.58   57.71% solve
c 
c last line shows process time for solving
c (percentage relative to total process time)
c 
c --- [ statistics ] ---------------------------------------------------------
c 
c chronological:               438        30.33 %  of conflicts
c conflicts:                  1444      2501.69    per second
c decisions:                  7484     12965.82    per second
c fixed:                        69         1.30 %  of all variables
c learned:                    1402        97.09 %  per conflict
c learned_lits:             162616       100.00 %  learned literals
c minimized:                     0         0.00 %  learned literals
c shrunken:                 119449        73.45 %  learned literals
c minishrunken:               6659         4.09 %  learned literals
c propagations:             315031         0.55 M  per second
c reduced:                      93         6.44 %  per conflict
c rephased:                      1      1444.00    interval
c restarts:                     68        21.24    interval
c stabilizing:                   1        30.61 %  of conflicts
c subsumed:                    443         0.32 %  of all clauses
c 
c seconds are measured in process time for solving
c 
c --- [ resources ] ----------------------------------------------------------
c 
c total process time since initialization:         1.00    seconds
c total real time since initialization:            1.03    seconds
c maximum resident set size of process:           51.06    MB
c 
c --- [ shutting down ] ------------------------------------------------------
c 
c exit 10
c --- [ banner ] -------------------------------------------------------------
c 
c CaDiCaL Radically Simplified CDCL SAT Solver
c Copyright (c) 2016-2021 A. Biere, M. Fleury, N. Froleyks
c 
c Version 1.5.2 ca9bff05c11bde5eae4912f9932871d1527e61d8
c g++ (GCC) 9.3.0 -Wall -Wextra -O3 -DNDEBUG
c Sun May 1 02:23:23 EDT 2022 Linux gra-login1 3.10.0-1160.59.1.el7.x86_64 x86_64
c 
c --- [ limit ] --------------------------------------------------------------
c 
c setting conflict limit to 200000 conflicts (due to '200000')
c 
c --- [ parsing input ] ------------------------------------------------------
c 
c reading DIMACS file from 'simp/12.cubes379.adj.simp2'
c opening file to read 'simp/12.cubes379.adj.simp2'
c found 'p cnf 5320 66425' header
c parsed 66425 clauses in 0.25 seconds process time
c closing file 'simp/12.cubes379.adj.simp2'
c after reading 19178158 bytes 18.3 MB
c 
c --- [ options ] ------------------------------------------------------------
c 
c all options are set to their default value
c 
c --- [ solving ] ------------------------------------------------------------
c 
c time measured in process time since initialization
c 
c  seconds  reductions  redundant  irredundant
c         MB    restarts       trail     variables
c          level   conflicts       glue       remaining
c 
c *  0.25 24  0 0   0    0    0  0% 0 66425 3623 68%
c {  0.26 26  0 0   0    0    0  0% 0 66425 3623 68%
c -  0.40 30 39 1  34  300  205 19% 15 66425 3623 68%
c -  0.54 46 25 2  39  900  524 21% 13 66425 3623 68%
c }  0.55 46 24 2  39 1000  594 22% 13 66425 3623 68%
c [  0.55 46  0 2  39 1000  594  0% 0 66425 3623 68%
c O  0.56 46 14 2  39 1013  599 18% 6 66425 3623 68%
c i  0.56 46 11 2  39 1016  601 16% 5 66425 3604 68%
c i  0.58 46 17 2  39 1124  666 21% 14 66425 3603 68%
c i  0.62 46 21 2  39 1359  819 23% 17 66425 3602 68%
c -  0.72 46 20 3  39 1800  910 24% 18 66183 3602 68%
c ]  0.93 45 22 3  40 3004 1733 25% 18 66183 3602 68%
c {  0.93 45 24 3  40 3004 1733 22% 13 66183 3602 68%
c -  0.95 44 24 4  40 3004 1276 22% 13 66183 3602 68%
c F  0.99 62 24 4  41 3015 1286 22% 13 66183 3602 68%
c i  1.06 62 28 4  75 3236 1436 23% 14 66183 3601 68%
c i  1.27 62 35 4 172 3709 1820 28% 18 66183 3600 68%
c i  1.30 62 35 4 183 3769 1867 28% 18 66183 3599 68%
c i  1.35 62 34 4 200 3949 2007 28% 18 66183 3598 68%
c i  1.43 62 36 4 243 4125 2162 29% 19 66183 3579 67%
c 
c  seconds  reductions  redundant   irredundant
c         MB    restarts       trail      variables
c          level   conflicts       glue        remaining
c 
c i  1.54 62 38 4 289 4355 2342 29% 20 66183 3569 67%
c -  1.61 61 37 5 289 4504 1738 29% 20 57814 3569 67%
c i  1.63 61 37 5 289 4603 1808 30% 20 57814 3568 67%
c d  1.73 61 34 5 289 5002 2084 31% 19 48283 3561 67%
c 2  1.75 61 34 5 289 5002 3770 31% 19 48206 3561 67%
c p  1.98 61 34 5 289 5002 12262 31% 19 48206 3510 66%
c d  2.02 61 34 5 289 5002 9834 31% 19 48053 3505 66%
c #  2.17 61 29 5 289 6019 10426 33% 17 48053 3505 66%
c -  2.24 61 28 6 289 6308 2383 33% 17 48053 3505 66%
c }  2.35 61 27 6 301 7004 2943 33% 16 48053 3505 66%
c [  2.35 61 22 6 301 7004 2943 36% 18 48053 3505 66%
c s  2.70 61 22 6 302 8396 3630 35% 18 46279 3505 66%
c v  2.88 61 22 6 302 8396 3630 35% 18 46228 3505 66%
c t  2.89 61 22 6 302 8396 3576 35% 18 46126 3505 66%
c e  2.97 61 22 6 302 8396 3375 35% 18 41206 782 15%
c s  3.01 61 22 6 302 8396 3371 35% 18 41142 782 15%
c -  3.11 61 22 7 302 8409 2628 68% 18 41142 782 15%
c I  3.38 61 26 7 303 10021 3813 67% 21 41142 782 15%
c -  3.51 61 26 8 304 10809 3086 66% 21 41142 782 15%
c -  3.92 61 23 9 306 13511 3228 64% 18 41142 782 15%
c 
c  seconds  reductions   redundant   irredundant
c         MB    restarts        trail      variables
c          level    conflicts       glue       remaining
c 
c 3  4.12 61 22 9 306 15002 4894 64% 18 41142 782 15%
c 2  4.13 61 22 9 306 15002 4925 64% 18 41141 782 15%
c p  4.21 61 22 9 306 15002 6552 64% 18 41141 778 15%
c ]  4.21 61 22 9 306 15006 6555 64% 18 41141 778 15%
c {  4.21 61 27 9 306 15006 6555 152% 16 41141 778 15%
c B  4.22 61 27 9 307 15023 6569 152% 16 41141 778 15%
c -  4.51 61 24 10 327 16517 3736 127% 15 41129 778 15%
c -  4.93 61 21 11 434 19818 3880 103% 14 41129 778 15%
c W  5.17 61 21 11 526 21025 4625 97% 14 41129 778 15%
c -  5.51 61 20 12 604 23420 4525 90% 14 41129 778 15%
c -  6.06 61 19 13 754 27320 4970 84% 14 41129 778 15%
c F  6.21 61 20 13 834 28030 5499 83% 14 41129 778 15%
c }  6.37 61 19 13 862 29025 6163 81% 14 41129 778 15%
c 1  6.37 61 19 13 862 29025 6163 81% 14 41129 778 15%
c 
c --- [ writing output ] -----------------------------------------------------
c 
c writing simplified CNF to DIMACS file 'simp/12.cubes379.adj.simp3'
c *  6.37 61 19 13 862 29025 6163 81% 14 41129 778 15%
c opening file to write 'simp/12.cubes379.adj.simp3'
c writing 'p cnf 5320 41129' header
c closing file 'simp/12.cubes379.adj.simp3'
c after writing 11001504 bytes 10.5 MB
c wrote 41129 clauses in 0.08 seconds process time
c 
c --- [ writing extension ] --------------------------------------------------
c 
c writing extension stack to 'simp/12.cubes379.adj.ext3'
c opening file to write 'simp/12.cubes379.adj.ext3'
c closing file 'simp/12.cubes379.adj.ext3'
c after writing 128946 bytes 0.1 MB
c wrote 5492 witnesses in 0.00 seconds process time
c 
c --- [ result ] -------------------------------------------------------------
c 
s SATISFIABLE
c 
c --- [ run-time profiling ] -------------------------------------------------
c 
c process time taken by individual solving procedures
c (percentage relative to process time for solving)
c 
c         5.28   86.29% search
c         3.46   56.62% unstable
c         1.74   28.48% stable
c         0.84   13.70% simplify
c         0.31    5.06% probe
c         0.25    4.04% parse
c         0.18    2.96% vivify
c         0.14    2.30% elim
c         0.08    1.27% subsume
c         0.06    1.02% walk
c         0.02    0.34% ternary
c         0.01    0.17% lucky
c   =================================
c         6.12   94.85% solve
c 
c last line shows process time for solving
c (percentage relative to total process time)
c 
c --- [ statistics ] ---------------------------------------------------------
c 
c chronological:              5835        20.10 %  of conflicts
c conflicts:                 29025      4743.88    per second
c decisions:                 64173     10488.51    per second
c eliminated:                 2723        51.18 %  of all variables
c fixed:                       110         2.07 %  of all variables
c learned:                   28320        97.57 %  per conflict
c learned_lits:            3537827       100.00 %  learned literals
c minimized:                     0         0.00 %  learned literals
c shrunken:                2224675        62.88 %  learned literals
c minishrunken:             277210         7.84 %  learned literals
c propagations:            3267803         0.53 M  per second
c reduced:                   12386        42.67 %  per conflict
c rephased:                      7      4146.43    interval
c restarts:                    862        33.67    interval
c stabilizing:                   2        34.47 %  of conflicts
c substituted:                  12         0.23 %  of all variables
c subsumed:                  11854         5.13 %  of all clauses
c strengthened:               3458         1.50 %  of all clauses
c ternary:                    2375         0.62 %  of resolved
c vivified:                     66         0.03 %  of all clauses
c walked:                        1     29025.00    interval
c weakened:                   5382         2.86    average size
c 
c seconds are measured in process time for solving
c 
c --- [ resources ] ----------------------------------------------------------
c 
c total process time since initialization:         6.45    seconds
c total real time since initialization:            6.47    seconds
c maximum resident set size of process:           63.71    MB
c 
c --- [ shutting down ] ------------------------------------------------------
c 
c exit 10
WARNING! DIMACS header mismatch: wrong number of variables.
============================[ Problem Statistics ]=============================
|                                                                             |
|  Number of variables:          2942                                         |
|  Number of clauses:           41131                                         |
|  Parse time:                   0.14 s                                       |
|  Simplification time:          0.00 s                                       |
|                                                                             |
============================[ Search Statistics ]====================================================
| Conflicts |          ORIGINAL         |          LEARNT          | Num Sols |      SUBGRAPHS      |
|           |    Vars  Clauses Literals |    Limit  Clauses Lit/Cl |          | Canonical Noncanon. |
=====================================================================================================
|       106 |    2843    41137  2464714 |     2000      106     67 |        0 |        17         6 |
|       259 |    2843    41140  2464768 |     2000      259     68 |        0 |        35         9 |
|       493 |    2843    41149  2464889 |     2000      493     74 |        0 |        37        18 |
|       918 |    2843    41237  2465971 |     2000      918     57 |        0 |        88       106 |
|      1443 |    2843    41256  2466200 |     2000     1443     56 |        0 |       111       125 |
|      2220 |    2843    41274  2466450 |     3602     1222     43 |        0 |       127       143 |
|      3395 |    2843    41310  2467003 |     3602     2397     64 |        0 |       137       179 |
|      5135 |    2843    41342  2467545 |     5002     2337     49 |        0 |       173       211 |
|      7732 |    2843    41377  2468177 |     5002     4934     66 |        0 |       193       246 |
|     11629 |    2843    41430  2469230 |     7555     3184     37 |        0 |       299       299 |
|     17480 |    2843    41515  2470434 |     8779     5259     50 |        0 |       375       384 |
|     26371 |    2843    41757  2474598 |     9994     9765     58 |        0 |       585       626 |
|     39489 |    2843    41901  2477429 |    12405    12294     56 |        0 |       669       770 |
|     59259 |    2843    42210  2483195 |    16005    11664     52 |        0 |       907      1079 |
|     88968 |    2843    42727  2491651 |    19621    15589     53 |        0 |      1200      1596 |
|    133654 |    2843    43624  2507614 |    24412    17466     47 |        0 |      1648      2493 |
|    200492 |    2843    44778  2525005 |    30418    17310     43 |        0 |      2039      3647 |
|    300567 |    2824    32958  1981834 |    33378    32345     57 |        0 |      2794      5196 |
=====================================================================================================
Number of solutions   : 0
Canonical subgraphs   : 2980           (43 /sec)
          order  3    : 1              (166667 /sec)
          order  4    : 1              (500000 /sec)
          order  5    : 1              (250000 /sec)
          order  6    : 1              (52632 /sec)
          order  7    : 2              (10204 /sec)
          order  8    : 5              (2351 /sec)
          order  9    : 10             (474 /sec)
          order 10    : 29             (109 /sec)
          order 11    : 123            (43 /sec)
          order 12    : 558            (38 /sec)
          order 13    : 1469           (45 /sec)
          order 14    : 733            (42 /sec)
          order 15    : 37             (38 /sec)
          order 16    : 9              (32 /sec)
          order 17    : 1              (44 /sec)
          order 18    : 0              (-nan /sec)
          order 19    : 0              (-nan /sec)
          order 20    : 0              (-nan /sec)
          order 21    : 0              (-nan /sec)
Noncanonical subgraphs: 5695           (3302 /sec)
          order  3    : 0              (-nan /sec)
          order  4    : 0              (-nan /sec)
          order  5    : 0              (-nan /sec)
          order  6    : 0              (-nan /sec)
          order  7    : 0              (-nan /sec)
          order  8    : 0              (-nan /sec)
          order  9    : 0              (-nan /sec)
          order 10    : 0              (-nan /sec)
          order 11    : 0              (-nan /sec)
          order 12    : 0              (-nan /sec)
          order 13    : 4164           (12220 /sec)
          order 14    : 1302           (2617 /sec)
          order 15    : 227            (260 /sec)
          order 16    : 2              (162 /sec)
          order 17    : 0              (-nan /sec)
          order 18    : 0              (-nan /sec)
          order 19    : 0              (-nan /sec)
          order 20    : 0              (-nan /sec)
Canonicity checking   : 68.8405 s
Noncanonicity checking: 1.72474 s
Total canonicity time : 70.5652 s
database reductions   : 30
restarts              : 766
conflicts             : 327303         (2829 /sec)
decisions             : 426221         (0.00 % random) (3684 /sec)
propagations          : 15718736       (135850 /sec)
conflict literals     : 24283641       (53.08 % deleted)
actual reward         : 0.248053
Memory used           : 55.00 MB
CPU time              : 115.707 s

UNSATISFIABLE
